c NeuroCodeBench 2.0 CNF formula with verdict Unsat
p cnf 5 20
1 5 3 2 4 0
-1 5 2 -4 -3 0
-1 -5 4 2 0
-1 5 2 -4 3 0
-1 5 -2 -4 -3 0
-1 5 -2 -4 3 0
1 5 -3 -4 2 0
-1 5 2 4 0
-1 -5 4 -2 -3 0
-1 -5 4 -2 3 0
-1 -5 -4 -3 0
-1 -5 -4 3 0
1 5 3 2 -4 0
1 5 -3 4 0
-1 5 -2 4 -3 0
-1 5 -2 4 3 0
1 5 -3 -4 -2 0
1 -5 -3 0
1 -5 3 0
1 5 3 -2 0
